root_relax = 13217.0
opt = true
obj_val = 8598.0
solved_time = 0.0963
explored_nodes = 9
nb_dom_cuts = 132
r                0
CPXPARAM_Preprocessing_NumPass                   0
CPXPARAM_Output_CloneLog                         -1
CPXPARAM_MIP_Cuts_Cliques                        -1
CPXPARAM_Preprocessing_CoeffReduce               0
CPXPARAM_MIP_Cuts_Covers                         -1
CPXPARAM_Preprocessing_BoundStrength             0
CPXPARAM_Preprocessing_Relax                     0
CPXPARAM_MIP_Cuts_FlowCovers                     -1
CPXPARAM_MIP_Cuts_Implied                        -1
CPXPARAM_MIP_Strategy_Probe                      -1
CPXPARAM_MIP_Cuts_GUBCovers                      -1
CPXPARAM_MIP_Cuts_Gomory                         -1
CPXPARAM_MIP_Cuts_PathCut                        -1
CPXPARAM_MIP_Cuts_MIRCut                         -1
CPXPARAM_MIP_Cuts_Disjunctive                    -1
CPXPARAM_Preprocessing_Symmetry                  0
CPXPARAM_Preprocessing_RepeatPresolve            0
CPXPARAM_MIP_Strategy_FPHeur                     -1
CPXPARAM_MIP_Cuts_ZeroHalfCut                    -1
CPXPARAM_MIP_Cuts_LiftProj                       -1
CPXPARAM_MIP_Strategy_HeuristicFreq              -1
CPXPARAM_MIP_Limits_CutPasses                    -1
CPXPARAM_MIP_Strategy_RINSHeur                   -1
CPXPARAM_TimeLimit                               1800
Tried aggregator 0 times.
MIP Presolve eliminated 49 rows and 0 columns.
MIP Presolve added 768 rows and 384 columns.
MIP Presolve modified 109 coefficients.
Reduced MIP has 851 rows, 465 columns, and 1950 nonzeros.
Reduced MIP has 465 binaries, 0 generals, 0 SOSs, and 0 indicators.
Presolve time = 0.00 sec. (0.27 ticks)
Classifier predicts products in MIQP should be linearized.
Clique table members: 572.
MIP emphasis: balance optimality and feasibility.
MIP search method: dynamic search.
Parallel mode: deterministic, using up to 32 threads.
Root relaxation solution time = 0.00 sec. (4.57 ticks)

        Nodes                                         Cuts/
   Node  Left     Objective  IInf  Best Integer    Best Bound    ItCnt     Gap

      0     0    13217.0000   267                  13217.0000      448         
      0     2    13217.0000   267                  13217.0000      448         
Elapsed time = 0.07 sec. (8.06 ticks, tree = 0.02 MB, solutions = 0)
*     4     2      integral     0     8589.0000    13210.0000      738   53.80%
*     6     3      integral     0     8598.0000     8606.0000     1002    0.09%

Root node processing (before b&c):
  Real time             =    0.01 sec. (7.74 ticks)
Parallel b&c, 32 threads:
  Real time             =    0.08 sec. (6.08 ticks)
  Sync time (average)   =    0.02 sec.
  Wait time (average)   =    0.00 sec.
                          ------------
Total (root+branch&cut) =    0.09 sec. (13.82 ticks)
